SPARKNaCl/why3-cvc5/sparknacl-hkdf.adb_36_14_length_check_1.smt2
;; produced by cvc5.drv ;;
(set-logic ALL)
(set-info :smt-lib-version 2.6)
;;; generated by SMT-LIB2 driver
;;; SMT-LIB2 driver: bit-vectors, common part
;;; SMT-LIB2: integer arithmetic
(define-fun __cdiv ((x Int) (y Int)) Int (ite (>= x 0) (div x y) (- (div (- x) y))))
(define-fun __cmod ((x Int) (y Int)) Int (ite (>= x 0) (mod x y) (- (mod (- x) y))))
;; "length"
(define-fun length ((x Int) (y Int)) Int
  (ite (<= x y) (+ (- y x) 1) 0))

;; "pow2"
(declare-fun pow2 (Int) Int)

(declare-const two_power_size_minus_one Int)

;; "two_power_size_minus_one_val"
(assert (= two_power_size_minus_one (pow2 (- 8 1))))

;; "min"
(define-fun min ((x Int) (y Int)) Int
  (ite (<= x y) x y))

;; "max"
(define-fun max ((x Int) (y Int)) Int
  (ite (<= x y) y x))

;; "Min_r"
(assert (forall ((x Int) (y Int)) (=> (<= y x) (= (min x y) y))))

;; "Max_l"
(assert (forall ((x Int) (y Int)) (=> (<= y x) (= (max x y) x))))

;; "Min_comm"
(assert (forall ((x Int) (y Int)) (= (min x y) (min y x))))

;; "Max_comm"
(assert (forall ((x Int) (y Int)) (= (max x y) (max y x))))

;; "Min_assoc"
(assert
  (forall ((x Int) (y Int) (z Int)) (= (min (min x y) z) (min x (min y z)))))

;; "Max_assoc"
(assert
  (forall ((x Int) (y Int) (z Int)) (= (max (max x y) z) (max x (max y z)))))

(declare-const two_power_size_minus_one1 Int)

;; "two_power_size_minus_one_val"
(assert (= two_power_size_minus_one1 (pow2 (- 32 1))))

(declare-sort tinteger_32B 0)

;; "tinteger_32B'int"
(declare-fun tinteger_32Bqtint (tinteger_32B) Int)

;; "tinteger_32B'axiom"
(assert
  (forall ((i tinteger_32B))
    (and
      (<= (- 2147483648) (tinteger_32Bqtint i))
      (<= (tinteger_32Bqtint i) 2147483647))))

;; "in_range"
(define-fun in_range ((x Int)) Bool
  (and (<= (- 2147483648) x) (<= x 2147483647)))

;; "to_rep"
(define-fun to_rep ((x tinteger_32B)) Int
  (tinteger_32Bqtint x))

;; "of_rep"
(declare-fun of_rep (Int) tinteger_32B)

;; "inversion_axiom"
(assert
  (forall ((x tinteger_32B))
    (! (= (of_rep (to_rep x)) x) :pattern ((to_rep x)) )))

;; "range_axiom"
(assert
  (forall ((x tinteger_32B))
    (! (in_range (to_rep x)) :pattern ((to_rep x)) )))

;; "coerce_axiom"
(assert
  (forall ((x Int))
    (! (=> (in_range x) (= (to_rep (of_rep x)) x)) :pattern ((to_rep
                                                               (of_rep x))) )))

;; "in_range"
(define-fun in_range1 ((x Int)) Bool
  (and (<= 0 x) (<= x 2147483647)))

(declare-sort byte 0)

;; "to_rep"
(declare-fun to_rep1 (byte) (_ BitVec 8))

;; "of_rep"
(declare-fun of_rep1 ((_ BitVec 8)) byte)

;; "inversion_axiom"
(assert
  (forall ((x byte)) (! (= (of_rep1 (to_rep1 x)) x) :pattern ((to_rep1 x)) )))

;; "range_axiom"
(assert true)

;; "coerce_axiom"
(assert
  (forall ((x (_ BitVec 8)))
    (! (= (to_rep1 (of_rep1 x)) x) :pattern ((to_rep1 (of_rep1 x))) )))

(declare-sort map1 0)

;; "has_bounds"
(declare-fun has_bounds (map1
  Int
  Int) Bool)

;; "get"
(declare-fun get (map1
  Int) byte)

;; "slice"
(declare-fun slice (map1
  Int
  Int) map1)

;; "slice_eq"
(assert
  (forall ((a map1) (f Int) (l Int))
    (! (=> (has_bounds a f l) (= (slice a f l) a)) :pattern ((slice a f l)
    (has_bounds a f l)) )))

;; "slice_slice"
(assert
  (forall ((a map1) (f1 Int) (l1 Int) (f2 Int) (l2 Int))
    (! (=>
         (and (<= f1 f2) (<= l2 l1))
         (= (slice (slice a f1 l1) f2 l2) (slice a f2 l2))) :pattern (
    (slice
      (slice a f1 l1)
      f2
      l2)) )))

;; "slice_def"
(assert
  (forall ((a map1) (f Int) (l Int))
    (! (forall ((i Int))
         (! (=> (and (<= f i) (<= i l)) (= (get (slice a f l) i) (get a i))) :pattern (
         (get
           (slice a f l)
           i)) :pattern ((get a i)) )) :pattern ((slice a f l)) )))

;; "slice_has_bounds"
(assert
  (forall ((a map1) (f Int) (l Int))
    (! (has_bounds (slice a f l) f l) :pattern ((has_bounds
                                                  (slice a f l)
                                                  f
                                                  l)) )))

;; "concat_singleton_right"
(declare-fun concat_singleton_right (map1
  Int
  Int
  byte
  Int) map1)

;; "concat_singleton_right_def"
(assert
  (forall ((a map1) (b byte) (a_first Int) (a_last Int) (new_last Int))
    (! (and
         (=>
           (and (<= a_first a_last) (< a_last new_last))
           (=>
             (has_bounds a a_first a_last)
             (has_bounds
               (concat_singleton_right a a_first a_last b new_last)
               a_first
               new_last)))
         (and
           (=>
             (< a_last (+ a_last 1))
             (= (get
                  (concat_singleton_right a a_first a_last b new_last)
                  (+ a_last 1)) b))
           (forall ((i Int))
             (! (=>
                  (and (<= a_first i) (<= i a_last))
                  (= (get
                       (concat_singleton_right a a_first a_last b new_last)
                       i) (get a i))) :pattern ((get
                                                  (concat_singleton_right
                                                    a
                                                    a_first
                                                    a_last
                                                    b
                                                    new_last)
                                                  i)) :pattern ((get a i)) )))) :pattern (
    (concat_singleton_right
      a
      a_first
      a_last
      b
      new_last)) )))

;; "singleton"
(declare-fun singleton1 (byte
  Int) map1)

;; "singleton_bounds"
(assert
  (forall ((v byte) (i Int))
    (! (and (has_bounds (singleton1 v i) i i) (= (get (singleton1 v i) i) v)) :pattern (
    (singleton1
      v
      i)) )))

(declare-datatypes ((t 0))
  (((tqtmk (rec__first tinteger_32B)(rec__last tinteger_32B)))))

;; "mk"
(declare-fun mk (Int
  Int) t)

;; "mk_def"
(assert
  (forall ((f Int) (l Int))
    (! (=>
         (in_range f)
         (=>
           (in_range l)
           (and
             (= (to_rep (rec__first (mk f l))) f)
             (= (to_rep (rec__last (mk f l))) l)))) :pattern ((mk f l)) )))

;; "dynamic_property"
(define-fun dynamic_property ((range_first Int) (range_last Int) (low Int) (high Int)) Bool
  (and
    (in_range low)
    (and
      (in_range high)
      (=> (<= low high) (and (in_range1 low) (in_range1 high))))))

(declare-datatypes ((us_t 0))
  (((us_tqtmk (elts map1)(rt t)))))

;; "to_array"
(define-fun to_array ((a us_t)) map1
  (elts a))

;; "of_array"
(define-fun of_array ((a map1) (f Int) (l Int)) us_t
  (us_tqtmk a (mk f l)))

;; "first"
(define-fun first ((a us_t)) Int
  (to_rep (rec__first (rt a))))

;; "last"
(define-fun last ((a us_t)) Int
  (to_rep (rec__last (rt a))))

;; "length"
(define-fun length1 ((a us_t)) Int
  (ite (<= (first a) (last a)) (+ (- (last a) (first a)) 1) 0))

;; "well_formed"
(define-fun well_formed ((a us_t)) Bool
  (has_bounds
    (elts a)
    (to_rep (rec__first (rt a)))
    (to_rep (rec__last (rt a)))))

(declare-datatypes ((byte__init_wrapper 0))
  (((byte__init_wrapperqtmk (rec__value byte)(us_attr__init Bool)))))

(declare-sort map2 0)

;; "has_bounds"
(declare-fun has_bounds1 (map2
  Int
  Int) Bool)

;; "get"
(declare-fun get1 (map2
  Int) byte__init_wrapper)

(declare-const okm__first tinteger_32B)

(declare-const okm__last tinteger_32B)

(declare-const prk map1)

(declare-const info us_t)

;; "__is_initialized"
(define-fun us_is_initialized ((temp___expr_298 map2)) Bool
  (forall ((temp___299 Int))
    (=>
      (and (<= 0 temp___299) (<= temp___299 31))
      (= (us_attr__init (get1 temp___expr_298 temp___299)) true))))

;; "in_range"
(define-fun in_range2 ((x Int)) Bool
  (and (<= 0 x) (<= x 8159)))

;; "convert"
(declare-fun convert (map2) map1)

;; "convert__def"
(assert
  (forall ((a map2))
    (forall ((temp___169 Int))
      (= (to_rep1 (of_rep1 (to_rep1 (rec__value (get1 a temp___169))))) 
      (to_rep1
        (get (convert a) temp___169))))))

;; "convert"
(declare-fun convert1 (map1) map2)

;; "convert__def"
(assert
  (forall ((a map1))
    (let ((b (convert1 a)))
      (forall ((temp___170 Int))
        (and
          (= (us_attr__init
               (byte__init_wrapperqtmk
                 (of_rep1 (to_rep1 (get a temp___170)))
                 true)) (us_attr__init (get1 b temp___170)))
          (= (to_rep1
               (rec__value
                 (byte__init_wrapperqtmk
                   (of_rep1 (to_rep1 (get a temp___170)))
                   true))) (to_rep1 (rec__value (get1 b temp___170)))))))))

(declare-datatypes ((t1 0))
  (((tqtmk1 (rec__first1 tinteger_32B)(rec__last1 tinteger_32B)))))

;; "mk"
(declare-fun mk1 (Int
  Int) t1)

;; "mk_def"
(assert
  (forall ((f Int) (l Int))
    (! (=>
         (in_range f)
         (=>
           (in_range l)
           (and
             (= (to_rep (rec__first1 (mk1 f l))) f)
             (= (to_rep (rec__last1 (mk1 f l))) l)))) :pattern ((mk1 f l)) )))

;; "dynamic_property"
(define-fun dynamic_property1 ((range_first Int) (range_last Int) (low Int) (high Int)) Bool
  (and
    (in_range low)
    (and
      (in_range high)
      (=> (<= low high) (and (in_range2 low) (in_range2 high))))))

(declare-datatypes ((us_t1 0))
  (((us_tqtmk1 (elts1 map1)(rt1 t1)))))

;; "of_array"
(define-fun of_array1 ((a map1) (f Int) (l Int)) us_t1
  (us_tqtmk1 a (mk1 f l)))

(declare-datatypes ((t2 0))
  (((tqtmk2 (rec__first2 tinteger_32B)(rec__last2 tinteger_32B)))))

;; "mk"
(declare-fun mk2 (Int
  Int) t2)

;; "mk_def"
(assert
  (forall ((f Int) (l Int))
    (! (=>
         (in_range f)
         (=>
           (in_range l)
           (and
             (= (to_rep (rec__first2 (mk2 f l))) f)
             (= (to_rep (rec__last2 (mk2 f l))) l)))) :pattern ((mk2 f l)) )))

(declare-datatypes ((us_t2 0))
  (((us_tqtmk2 (elts2 map2)(rt2 t2)))))

;; "of_array"
(define-fun of_array2 ((a map2) (f Int) (l Int)) us_t2
  (us_tqtmk2 a (mk2 f l)))

;; "well_formed"
(define-fun well_formed1 ((a us_t2)) Bool
  (has_bounds1
    (elts2 a)
    (to_rep (rec__first2 (rt2 a)))
    (to_rep (rec__last2 (rt2 a)))))

;; "dynamic_invariant"
(define-fun dynamic_invariant ((temp___expr_244 us_t) (temp___is_init_240 Bool) (temp___skip_constant_241 Bool) (temp___do_toplevel_242 Bool) (temp___do_typ_inv_243 Bool)) Bool
  (and
    (=>
      (not (= temp___skip_constant_241 true))
      (dynamic_property
        0
        2147483647
        (first temp___expr_244)
        (last temp___expr_244)))
    (well_formed temp___expr_244)))

;; "__is_initialized"
(define-fun us_is_initialized1 ((temp___expr_277 map2)) Bool
  (forall ((temp___278 Int))
    (=>
      (and (<= 0 temp___278) (<= temp___278 31))
      (= (us_attr__init (get1 temp___expr_277 temp___278)) true))))

;; Goal "def'vc"
;; File "sparknacl-hkdf.ads", line 25, characters 0-0
(assert
  (not
  (forall ((okm map2) (ti map1))
    (=>
      (and
        (dynamic_property1 0 8159 (to_rep okm__first) (to_rep okm__last))
        (well_formed1 (of_array2 okm (to_rep okm__first) (to_rep okm__last))))
      (=>
        (has_bounds prk 0 31)
        (=>
          (dynamic_invariant info true false true true)
          (=>
            (and
              (and
                (and
                  (and
                    (= (to_rep okm__first) 0)
                    (< 0 (length (to_rep okm__first) (to_rep okm__last))))
                  (<= (length (to_rep okm__first) (to_rep okm__last)) 8160))
                (=> (< 0 (length1 info)) (= (first info) 0)))
              (bvult ((_ int2bv 32) (length1 info)) #x7FFFFF9E))
            (=>
              (has_bounds ti 0 31)
              (forall ((b (_ BitVec 8)))
                (=>
                  (= b #x01)
                  (forall ((o us_t))
                    (=>
                      (ite (= (length1 info) 0)
                        (exists ((o1 byte))
                          (and
                            (= (to_rep1 o1) b)
                            (= o (of_array (singleton1 o1 0) 0 0))))
                        (let ((o1 (- (+ (first info) (+ (length
                                                          (first info)
                                                          (last info)) 1)) 1)))
                          (and
                            (in_range1 o1)
                            (exists ((o2 byte))
                              (and
                                (= (to_rep1 o2) b)
                                (= o (of_array
                                       (concat_singleton_right
                                         (to_array info)
                                         (first info)
                                         (last info)
                                         o2
                                         (+ 2147483647 1))
                                       (first info)
                                       o1)))))))
                      (forall ((param__output map2))
                        (=>
                          (and
                            (us_is_initialized param__output)
                            (has_bounds1 param__output 0 31))
                          (=>
                            (us_is_initialized1 param__output)
                            (forall ((ti1 map1))
                              (=>
                                (= ti1 (convert param__output))
                                (forall ((o1 Int))
                                  (=>
                                    (= (to_rep okm__last) o1)
                                    (forall ((o2 Int))
                                      (=>
                                        (= (to_rep okm__first) o2)
                                        (forall ((o3 Int))
                                          (=>
                                            (= (to_rep okm__last) o3)
                                            (forall ((spark__branch Bool))
                                              (=>
                                                (= spark__branch (ite (<= o3 31)
                                                                   true
                                                                   false))
                                                (=>
                                                  (= spark__branch true)
                                                  (forall ((o4 Int))
                                                    (=>
                                                      (= (to_rep okm__last) o4)
                                                      (forall ((o5 Int))
                                                        (=>
                                                          (= (to_rep
                                                               okm__first) o5)
                                                          (forall ((temp___556 Int))
                                                            (=>
                                                              (= (to_rep
                                                                   okm__last) temp___556)
                                                              (forall 
                                                                ((o6 Int))
                                                                (=>
                                                                  (= 
                                                                  (to_rep
                                                                    okm__last) o6)
                                                                  (forall 
                                                                    ((o7 Int))
                                                                    (=>
                                                                    (= 
                                                                    (to_rep
                                                                    okm__first) o7)
                                                                    (forall 
                                                                    ((temp___553 Int))
                                                                    (=>
                                                                    (= 
                                                                    (to_rep
                                                                    okm__first) temp___553)
                                                                    (=>
                                                                    (=>
                                                                    (<= temp___553 temp___556)
                                                                    (and
                                                                    (and
                                                                    (<= 0 temp___553)
                                                                    (<= temp___553 31))
                                                                    (and
                                                                    (<= 0 temp___556)
                                                                    (<= temp___556 31))))
                                                                    (=>
                                                                    (dynamic_property1
                                                                    0
                                                                    8159
                                                                    temp___553
                                                                    temp___556)
                                                                    (forall 
                                                                    ((o8 Int))
                                                                    (=>
                                                                    (= 
                                                                    (to_rep
                                                                    okm__last) o8)
                                                                    (forall 
                                                                    ((o9 Int))
                                                                    (=>
                                                                    (= 
                                                                    (to_rep
                                                                    okm__first) o9)
                                                                    (=>
                                                                    (<= temp___553 temp___556)
                                                                    (<= o9 o8))))))))))))))))))))))))))))))))))))))))))))))

(check-sat)
